\* Problem: BladeFlyer *\

Minimize
 obj: + 554 X1 + 282 X2 + 720 X3 + 576 X4 + 762 X5 + 454 X6 + 846 X7
 + 740 X8 + 658 X9 + 360 X10 + 168 X11 + 340 X12 + 440 X13 + 696 X14
 + 376 X15 + 338 X16 + 318 X17 + 378 X18 + 732 X19 + 800 X20 + 1112 X21
 + 706 X22 + 1304 X23 + 1005 X24 + 927 X25 + 899 X26 + 1202 X27
 + 914 X28 + 655 X29 + 610 X30 + 636 X31 + 1236 X32 + 660 X33 + 781 X34
 + 571 X35 + 804 X36 + 1165 X37 + 754 X38 + 771 X39 + 787 X40 + 509 X41
 + 1030 X42 + 896 X43 + 687 X44 + 445 X45 + 313 X46 + 542 X47 + 640 X48
 + 719 X49 + 658 X50 + 405 X51 + 587 X52 + 642 X53 + 747 X54 + 1009 X55
 + 1119 X56 + 938 X57 + 1212 X58 + 1053 X59 + 1044 X60 + 902 X61
 + 720 X62 + 849 X63 + 916 X64 + 1059 X65 + 1066 X66 + 719 X67 + 966 X68
 + 1097 X69 + 801 X70 + 1273 X71 + 994 X72 + 845 X73 + 772 X74
 + 1174 X75 + 914 X76 + 634 X77 + 577 X78 + 576 X79 + 1205 X80 + 772 X81
 + 723 X82 + 660 X83 + 893 X84 + 1073 X85 + 767 X86 + 1525 X87
 + 1380 X88 + 761 X89 + 772 X90 + 818 X91 + 1048 X92 + 1144 X93
 + 764 X94 + 1129 X95 + 889 X96 + 1079 X97 + 1055 X98 + 1061 X99
 + 1256 X100 + 1123 X101 + 664 X102 + 460 X103 + 528 X104 + 761 X105
 + 861 X106 + 705 X107 + 817 X108 + 630 X109 + 772 X110 + 746 X111
 + 903 X112 + 899 X113 + 1429 X114 + 1179 X115 + 899 X116 + 846 X117
 + 845 X118 + 1457 X119 + 1024 X120 + 974 X121 + 918 X122 + 1156 X123
 + 1286 X124 + 1287 X125 + 1053 X126 + 775 X127 + 744 X128 + 753 X129
 + 1313 X130 + 966 X131 + 833 X132 + 852 X133 + 1078 X134 + 1128 X135
 + 670 X136 + 716 X137 + 947 X138 + 1045 X139 + 700 X140 + 1026 X141
 + 793 X142 + 976 X143 + 954 X144 + 992 X145 + 448 X146 + 679 X147
 + 779 X148 + 711 X149 + 718 X150 + 569 X151 + 677 X152 + 647 X153
 + 878 X154 + 401 X155 + 500 X156 + 750 X157 + 528 X158 + 338 X159
 + 447 X160 + 546 X161 + 736 X162 + 441 X163 + 980 X164 + 583 X165
 + 511 X166 + 470 X167 + 676 X168 + 896 X169 + 1076 X170 + 656 X171
 + 601 X172 + 541 X173 + 765 X174 + 971 X175 + 1065 X176 + 821 X177
 + 1013 X178 + 996 X179 + 1003 X180 + 692 X181 + 432 X182 + 525 X183
 + 1094 X184 + 600 X185 + 716 X186 + 740 X187 + 557 X188 + 1001 X189
 + 1105 X190 + 1146 X191 + 901 X192 + 1305 X193 + 1027 X194 + 1111 X195
 + 1055 X196 + 1205 X197 + 963 X198 + 800 X199 + 812 X200 + 836 X201
 + 1237 X202 + 906 X203 + 848 X204 + 817 X205 + 1050 X206 + 1180 X207
 + 1139 X208 + 1330 X209 + 1436 X210 + 1119 X211 + 1451 X212 + 1129 X213
 + 1193 X214 + 1403 X215 + 1124 X216 + 1304 X217 + 1044 X218 + 707 X219
 + 706 X220 + 1335 X221 + 853 X222 + 723 X223 + 956 X224 + 1203 X225
 + 1309 X226 + 1303 X227 + 1318 X228 + 1304 X229 + 1321 X230 + 1494 X231
 + 1337 X232 + 1282 X233 + 1208 X234 + 1011 X235 + 1015 X236 + 1031 X237
 + 1057 X238 + 1245 X239 + 1101 X240 + 1073 X241 + 1022 X242 + 1172 X243
 + 1336 X244 + 1367 X245 + 1287 X246 + 1217 X247 + 1241 X248 + 1240 X249
 + 1236 X250 + 1219 X251 + 1380 X252 + 1425 X253 + 1311 X254 + 1169 X255
 + 637 X256 + 1250 X257 + 781 X258 + 627 X259 + 860 X260 + 1166 X261
 + 1167 X262 + 1264 X263 + 1253 X264 + 1436 X265 + 1271 X266 + 798 X267
 + 1173 X268 + 1182 X269 + 1415 X270 + 1043 X271 + 1144 X272 + 972 X273
 + 1073 X274 + 917 X275 + 883 X276 + 950 X277 + 1082 X278 + 753 X279
 + 1000 X280 + 1114 X281 + 816 X282 + 1276 X283 + 998 X284 + 1029 X285
 + 928 X286 + 1176 X287 + 934 X288 + 779 X289 + 772 X290 + 771 X291
 + 1208 X292 + 967 X293 + 790 X294 + 855 X295 + 1088 X296 + 1088 X297
 + 792 X298 + 786 X299 + 797 X300 + 1047 X301 + 1145 X302 + 787 X303
 + 910 X304 + 1092 X305 + 1080 X306 + 1076 X307 + 1257 X308 + 1123 X309
 + 693 X310 + 515 X311 + 540 X312 + 769 X313 + 867 X314 + 728 X315
 + 872 X316 + 632 X317 + 814 X318 + 801 X319 + 918 X320 + 1435 X321
 + 1030 X322 + 1467 X323 + 1102 X324 + 1301 X325 + 1301 X326 + 900 X327
 + 1333 X328 + 1008 X329 + 1143 X330 + 699 X331 + 718 X332 + 947 X333
 + 1045 X334 + 723 X335 + 1055 X336 + 810 X337 + 992 X338 + 983 X339
 + 1007 X340 + 705 X341 + 734 X342 + 568 X343 + 750 X344 + 893 X345
 + 546 X346 + 750 X347 + 592 X348 + 751 X349 + 641 X350 + 979 X351
 + 785 X352 + 578 X353 + 672 X354 + 878 X355 + 911 X356 + 1077 X357
 + 668 X358 + 741 X359 + 965 X360 + 986 X361 + 1088 X362 + 842 X363
 + 1024 X364 + 1019 X365 + 1018 X366 + 701 X367 + 1109 X368 + 667 X369
 + 765 X370 + 755 X371 + 821 X372 + 1016 X373 + 1107 X374 + 1408 X375
 + 1227 X376 + 1333 X377 + 1010 X378 + 1348 X379 + 1008 X380 + 1093 X381
 + 1090 X382 + 1124 X383 + 1130 X384 + 1430 X385 + 1271 X386 + 1050 X387
 + 944 X388 + 938 X389 + 1067 X390 + 1134 X391 + 1068 X392 + 1284 X393
 + 937 X394 + 1184 X395 + 1230 X396 + 972 X397 + 1293 X398 + 1134 X399
 + 1173 X400 + 1063 X401 + 1290 X402 + 1061 X403 + 947 X404 + 801 X405
 + 1188 X406 + 979 X407 + 930 X408 + 997 X409 + 1072 X410 + 1147 X411
 + 800 X412 + 1047 X413 + 1174 X414 + 1278 X415 + 1272 X416 + 1274 X417
 + 1273 X418 + 1274 X419 + 1357 X420 + 1402 X421 + 1255 X422 + 1155 X423
 + 1180 X424 + 1000 X425 + 994 X426 + 995 X427 + 994 X428 + 1214 X429
 + 1190 X430 + 1015 X431 + 1078 X432 + 1261 X433 + 1244 X434 + 1285 X435
 + 1160 X436 + 1186 X437 + 1175 X438 + 1174 X439 + 1209 X440 + 1178 X441
 + 1258 X442 + 1469 X443 + 1333 X444 + 915 X445 + 1219 X446 + 1077 X447
 + 577 X448 + 1206 X449 + 724 X450 + 661 X451 + 894 X452 + 1074 X453
 + 1205 X454 + 660 X455 + 1073 X456 + 1206 X457 + 1289 X458 + 1505 X459
 + 1344 X460 + 1269 X461 + 807 X462 + 1081 X463 + 899 X464 + 1157 X465
 + 1390 X466 + 1530 X467 + 1385 X468 + 766 X469 + 773 X470 + 823 X471
 + 1053 X472 + 1149 X473 + 769 X474 + 1130 X475 + 894 X476 + 1084 X477
 + 1059 X478 + 1066 X479 + 1615 X480 + 1457 X481 + 1047 X482 + 763 X483
 + 1078 X484 + 1060 X485 + 1071 X486 + 1065 X487 + 1048 X488 + 1178 X489
 + 1225 X490 + 1300 X491 + 1063 X492 + 1423 X493 + 1069 X494 + 1330 X495
 + 1354 X496 + 1435 X497 + 1256 X498 + 1466 X499 + 1266 X500 + 1328 X501
 + 1457 X502 + 1293 X503 + 1127 X504 + 1322 X505 + 1125 X506 + 1235 X507
 + 1299 X508 + 670 X509 + 722 X510 + 953 X511 + 1051 X512 + 706 X513
 + 1027 X514 + 799 X515 + 982 X516 + 956 X517 + 998 X518 + 767 X519
 + 867 X520 + 711 X521 + 636 X522 + 777 X523 + 747 X524 + 909 X525
 + 761 X526 + 759 X527 + 630 X528 + 807 X529 + 907 X530 + 862 X531
 + 989 X532 + 1004 X533 + 803 X534 + 891 X535 + 1044 X536 + 1067 X537
 + 1085 X538 + 893 X539 + 962 X540 + 1133 X541 + 1142 X542 + 1068 X543
 + 830 X544 + 1022 X545 + 997 X546 + 1012 X547 + 984 X548 + 873 X549
 + 1265 X550 + 892 X551 + 922 X552 + 911 X553 + 925 X554 + 1172 X555
 + 1195 X556 + 1546 X557 + 1286 X558 + 1557 X559 + 1294 X560 + 1358 X561
 + 1388 X562 + 1132 X563 + 1399 X564 + 1136 X565 + 1240 X566 + 1004 X567
 + 996 X568 + 1046 X569 + 984 X570 + 966 X571 + 1077 X572 + 1243 X573
 + 1156 X574 + 1231 X575 + 825 X576 + 1017 X577 + 1007 X578 + 1354 X579
 + 1055 X580 + 1000 X581 + 1261 X582 + 1288 X583 + 1042 X584 + 1117 X585
 + 1018 X586 + 886 X587 + 1147 X588 + 1165 X589 + 900 X590 + 1007 X591
 + 740 X592 + 1005 X593 + 972 X594 + 994 X595 + 1110 X596 + 1167 X597
 + 1139 X598 + 641 X599 + 904 X600 + 1026 X601 + 1232 X602 + 1242 X603
 + 979 X604 + 1072 X605 + 1296 X606 + 1365 X607 + 1011 X608 + 1272 X609
 + 1303 X610 + 1094 X611 + 1115 X612 + 1002 X613 + 1113 X614 + 1240 X615
 + 1128 X616 + 1218 X617 + 1211 X618 + 1039 X619 + 1246 X620 + 1044 X621
 + 1391 X622 + 1454 X623 + 1181 X624 + 1459 X625 + 1197 X626 + 1364 X627
 + 1374 X628 + 1499 X629 + 1431 X630 + 1337 X631 + 1445 X632 + 1354 X633
 + 1353 X634 + 1270 X635 + 1105 X636 + 1006 X637 + 1281 X638 + 1427 X639
 + 1182 X640 + 999 X641 + 1217 X642 + 1017 X643 + 1082 X644 + 1299 X645
 + 1362 X646 + 1089 X647 + 1367 X648 + 1140 X649 + 1172 X650 + 1081 X651
 + 1512 X652 + 1354 X653 + 953 X654 + 729 X655 + 998 X656 + 1013 X657
 + 924 X658 + 949 X659 + 988 X660 + 899 X661 + 1122 X662 + 1197 X663
 + 1027 X664 + 1281 X665 + 966 X666 + 1223 X667 + 1210 X668 + 1185 X669
 + 1022 X670 + 1290 X671 + 1190 X672 + 1041 X673 + 1261 X674 + 1067 X675
 + 1101 X676 + 1407 X677 + 1339 X678 + 1245 X679 + 1244 X680 + 1353 X681
 + 1296 X682 + 1328 X683 + 1536 X684 + 1066 X685 + 1230 X686 + 1162 X687
 + 1013 X688 + 1006 X689 + 1267 X690 + 1176 X691 + 1084 X692 + 1197 X693
 + 1281 X694

Subject To
 Groupe1: + X634 + X633 + X632 + X631 + X630 + X629 + X628 + X627 + X626
 + X625 + X624 + X623 + X622 + X621 + X620 + X619 + X618 + X617 + X616
 + X270 + X269 + X268 + X267 + X266 + X265 + X264 + X263 + X262 + X261
 + X260 + X259 + X258 + X257 + X256 + X255 + X254 + X253 + X252 + X251
 + X250 + X249 + X248 + X247 + X246 + X245 + X244 + X243 + X242 + X241
 + X240 + X239 + X238 + X237 + X236 + X235 + X234 + X233 + X232 + X231
 + X230 + X229 + X228 + X227 + X226 + X225 + X224 + X223 + X222 + X221
 + X220 + X219 + X218 + X217 + X216 + X215 + X214 + X213 + X212 + X211
 + X210 + X209 + X208 + X207 + X206 + X205 + X204 + X203 + X202 + X201
 + X200 + X199 + X198 + X197 + X196 + X195 + X194 + X193 + X192 + X191
 + X37 + X36 + X35 + X34 + X33 + X32 + X31 + X30 + X29 + X28 + X27 + X26
 + X25 + X24 + X23 + X22 + X21 + X20 + X1 = 1
 Groupe2: + X673 + X672 + X671 + X670 + X669 + X668 + X667 + X666 + X665
 + X664 + X663 + X662 + X661 + X660 + X659 + X658 + X657 + X656 + X655
 + X654 + X653 + X652 + X651 + X650 + X649 + X648 + X647 + X646 + X645
 + X644 + X643 + X642 + X641 + X640 + X639 + X638 + X637 + X636 + X635
 + X626 + X625 + X624 + X623 + X622 + X621 + X620 + X619 + X618 + X617
 + X616 + X374 + X373 + X372 + X371 + X370 + X369 + X368 + X367 + X366
 + X365 + X364 + X363 + X362 + X361 + X360 + X359 + X358 + X357 + X356
 + X355 + X354 + X353 + X352 + X351 + X350 + X349 + X348 + X347 + X346
 + X345 + X344 + X343 + X342 + X341 + X340 + X339 + X338 + X337 + X336
 + X335 + X334 + X333 + X332 + X331 + X330 + X329 + X328 + X327 + X326
 + X325 + X324 + X323 + X322 + X321 + X320 + X319 + X318 + X317 + X316
 + X315 + X314 + X313 + X312 + X311 + X310 + X309 + X308 + X307 + X306
 + X305 + X304 + X303 + X302 + X301 + X300 + X299 + X298 + X297 + X296
 + X295 + X294 + X293 + X292 + X291 + X290 + X289 + X288 + X287 + X286
 + X285 + X284 + X283 + X282 + X281 + X280 + X279 + X278 + X277 + X276
 + X275 + X274 + X273 + X272 + X271 + X207 + X206 + X205 + X204 + X203
 + X202 + X201 + X200 + X199 + X198 + X197 + X196 + X195 + X194 + X193
 + X192 + X191 + X54 + X53 + X52 + X51 + X50 + X49 + X48 + X47 + X46
 + X45 + X44 + X43 + X42 + X41 + X40 + X39 + X38 + X20 + X2 = 1
 Groupe3: + X676 + X675 + X674 + X637 + X636 + X635 + X627 + X414 + X413
 + X412 + X411 + X410 + X409 + X408 + X407 + X406 + X405 + X404 + X403
 + X402 + X401 + X400 + X399 + X398 + X397 + X396 + X395 + X394 + X393
 + X392 + X391 + X390 + X389 + X388 + X387 + X386 + X385 + X384 + X383
 + X382 + X381 + X380 + X379 + X378 + X377 + X376 + X375 + X282 + X281
 + X280 + X279 + X278 + X277 + X276 + X275 + X274 + X273 + X272 + X271
 + X214 + X213 + X212 + X211 + X210 + X209 + X208 + X191 + X70 + X69
 + X68 + X67 + X66 + X65 + X64 + X63 + X62 + X61 + X60 + X59 + X58 + X57
 + X56 + X55 + X38 + X21 + X3 = 1
 Groupe4: + X684 + X683 + X682 + X681 + X680 + X679 + X678 + X677 + X674
 + X650 + X649 + X648 + X647 + X646 + X645 + X644 + X643 + X642 + X641
 + X640 + X639 + X638 + X636 + X635 + X628 + X617 + X616 + X466 + X465
 + X464 + X463 + X462 + X461 + X460 + X459 + X458 + X457 + X456 + X455
 + X454 + X453 + X452 + X451 + X450 + X449 + X448 + X447 + X446 + X445
 + X444 + X443 + X442 + X441 + X440 + X439 + X438 + X437 + X436 + X435
 + X434 + X433 + X432 + X431 + X430 + X429 + X428 + X427 + X426 + X425
 + X424 + X423 + X422 + X421 + X420 + X419 + X418 + X417 + X416 + X415
 + X382 + X381 + X380 + X379 + X378 + X377 + X376 + X375 + X297 + X296
 + X295 + X294 + X293 + X292 + X291 + X290 + X289 + X288 + X287 + X286
 + X285 + X284 + X283 + X271 + X225 + X224 + X223 + X222 + X221 + X220
 + X219 + X218 + X217 + X216 + X215 + X208 + X192 + X85 + X84 + X83
 + X82 + X81 + X80 + X79 + X78 + X77 + X76 + X75 + X74 + X73 + X72 + X71
 + X55 + X39 + X22 + X4 = 1
 Groupe5: + X686 + X685 + X677 + X651 + X639 + X638 + X629 + X496 + X495
 + X494 + X493 + X492 + X491 + X490 + X489 + X488 + X487 + X486 + X485
 + X484 + X483 + X482 + X481 + X480 + X479 + X478 + X477 + X476 + X475
 + X474 + X473 + X472 + X471 + X470 + X469 + X468 + X467 + X421 + X420
 + X419 + X418 + X417 + X416 + X415 + X384 + X383 + X375 + X307 + X306
 + X305 + X304 + X303 + X302 + X301 + X300 + X299 + X298 + X283 + X272
 + X231 + X230 + X229 + X228 + X227 + X226 + X215 + X193 + X99 + X98
 + X97 + X96 + X95 + X94 + X93 + X92 + X91 + X90 + X89 + X88 + X87 + X86
 + X71 + X56 + X40 + X23 + X5 = 1
 Groupe6: + X694 + X693 + X692 + X691 + X690 + X689 + X688 + X687 + X686
 + X685 + X684 + X683 + X682 + X681 + X680 + X679 + X678 + X677 + X676
 + X675 + X674 + X668 + X667 + X666 + X665 + X664 + X663 + X662 + X661
 + X660 + X659 + X658 + X657 + X656 + X655 + X654 + X653 + X652 + X651
 + X645 + X644 + X643 + X642 + X641 + X640 + X638 + X637 + X635 + X634
 + X633 + X632 + X631 + X630 + X629 + X628 + X627 + X622 + X621 + X620
 + X619 + X618 + X616 + X556 + X555 + X554 + X553 + X552 + X551 + X550
 + X549 + X548 + X547 + X546 + X545 + X544 + X543 + X542 + X541 + X540
 + X539 + X538 + X537 + X536 + X535 + X534 + X533 + X532 + X531 + X530
 + X529 + X528 + X527 + X526 + X525 + X524 + X523 + X522 + X521 + X520
 + X519 + X518 + X517 + X516 + X515 + X514 + X513 + X512 + X511 + X510
 + X509 + X508 + X507 + X506 + X505 + X504 + X503 + X502 + X501 + X500
 + X499 + X498 + X497 + X479 + X478 + X477 + X476 + X475 + X474 + X473
 + X472 + X471 + X470 + X469 + X468 + X467 + X434 + X433 + X432 + X431
 + X430 + X429 + X428 + X427 + X426 + X425 + X424 + X423 + X422 + X415
 + X397 + X396 + X395 + X394 + X393 + X392 + X391 + X390 + X389 + X388
 + X387 + X386 + X385 + X383 + X376 + X320 + X319 + X318 + X317 + X316
 + X315 + X314 + X313 + X312 + X311 + X310 + X309 + X308 + X298 + X284
 + X273 + X244 + X243 + X242 + X241 + X240 + X239 + X238 + X237 + X236
 + X235 + X234 + X233 + X232 + X226 + X216 + X209 + X194 + X112 + X111
 + X110 + X109 + X108 + X107 + X106 + X105 + X104 + X103 + X102 + X101
 + X100 + X86 + X72 + X57 + X41 + X24 + X6 = 1
 Groupe7: + X652 + X561 + X560 + X559 + X558 + X557 + X502 + X501 + X500
 + X499 + X498 + X497 + X480 + X467 + X435 + X422 + X398 + X385 + X325
 + X324 + X323 + X322 + X321 + X308 + X285 + X245 + X232 + X195 + X124
 + X123 + X122 + X121 + X120 + X119 + X118 + X117 + X116 + X115 + X114
 + X113 + X100 + X87 + X73 + X58 + X42 + X25 + X7 = 1
 Groupe8: + X653 + X566 + X565 + X564 + X563 + X562 + X508 + X507 + X506
 + X505 + X504 + X503 + X481 + X468 + X436 + X423 + X399 + X386 + X330
 + X329 + X328 + X327 + X326 + X309 + X286 + X246 + X233 + X196 + X135
 + X134 + X133 + X132 + X131 + X130 + X129 + X128 + X127 + X126 + X125
 + X113 + X101 + X88 + X74 + X59 + X43 + X26 + X8 = 1
 Groupe9: + X690 + X689 + X688 + X687 + X685 + X678 + X675 + X671 + X670
 + X669 + X657 + X656 + X655 + X654 + X646 + X640 + X630 + X623 + X618
 + X583 + X582 + X581 + X580 + X579 + X578 + X577 + X576 + X575 + X574
 + X573 + X572 + X571 + X570 + X569 + X568 + X567 + X562 + X557 + X518
 + X517 + X516 + X515 + X514 + X513 + X512 + X511 + X510 + X509 + X503
 + X497 + X485 + X484 + X483 + X482 + X469 + X444 + X443 + X442 + X441
 + X440 + X439 + X438 + X437 + X424 + X416 + X403 + X402 + X401 + X400
 + X387 + X377 + X340 + X339 + X338 + X337 + X336 + X335 + X334 + X333
 + X332 + X331 + X326 + X321 + X310 + X299 + X287 + X274 + X253 + X252
 + X251 + X250 + X249 + X248 + X247 + X234 + X227 + X217 + X210 + X197
 + X145 + X144 + X143 + X142 + X141 + X140 + X139 + X138 + X137 + X136
 + X125 + X114 + X102 + X89 + X75 + X60 + X44 + X27 + X9 = 1
 Groupe10: + X658 + X589 + X588 + X587 + X586 + X585 + X584 + X567
 + X525 + X524 + X523 + X522 + X521 + X520 + X519 + X509 + X486 + X470
 + X446 + X445 + X437 + X425 + X404 + X388 + X345 + X344 + X343 + X342
 + X341 + X331 + X311 + X300 + X288 + X275 + X254 + X235 + X218 + X198
 + X154 + X153 + X152 + X151 + X150 + X149 + X148 + X147 + X146 + X136
 + X126 + X115 + X103 + X90 + X76 + X61 + X45 + X28 + X10 = 1
 Groupe11: + X659 + X593 + X592 + X591 + X590 + X568 + X530 + X529
 + X528 + X527 + X526 + X510 + X487 + X471 + X447 + X426 + X405 + X389
 + X349 + X348 + X347 + X346 + X332 + X312 + X289 + X255 + X236 + X199
 + X162 + X161 + X160 + X159 + X158 + X157 + X156 + X155 + X146 + X137
 + X127 + X116 + X104 + X91 + X77 + X62 + X46 + X29 + X11 = 1
 Groupe12: + X693 + X692 + X691 + X687 + X686 + X679 + X676 + X673
 + X672 + X669 + X662 + X661 + X660 + X654 + X647 + X641 + X631 + X624
 + X619 + X602 + X601 + X600 + X599 + X598 + X597 + X596 + X595 + X594
 + X590 + X584 + X574 + X573 + X572 + X571 + X570 + X569 + X563 + X558
 + X537 + X536 + X535 + X534 + X533 + X532 + X531 + X526 + X519 + X511
 + X504 + X498 + X490 + X489 + X488 + X482 + X472 + X453 + X452 + X451
 + X450 + X449 + X448 + X445 + X438 + X427 + X417 + X408 + X407 + X406
 + X400 + X390 + X378 + X356 + X355 + X354 + X353 + X352 + X351 + X350
 + X346 + X341 + X333 + X327 + X322 + X313 + X301 + X290 + X276 + X261
 + X260 + X259 + X258 + X257 + X256 + X247 + X237 + X228 + X219 + X211
 + X200 + X169 + X168 + X167 + X166 + X165 + X164 + X163 + X155 + X147
 + X138 + X128 + X117 + X105 + X92 + X78 + X63 + X47 + X30 + X12 = 1
 Groupe13: + X680 + X663 + X606 + X605 + X604 + X603 + X594 + X585
 + X575 + X569 + X542 + X541 + X540 + X539 + X538 + X531 + X520 + X512
 + X491 + X473 + X456 + X455 + X454 + X448 + X439 + X428 + X409 + X391
 + X361 + X360 + X359 + X358 + X357 + X350 + X334 + X314 + X302 + X291
 + X277 + X262 + X256 + X248 + X238 + X220 + X201 + X175 + X174 + X173
 + X172 + X171 + X170 + X163 + X156 + X148 + X139 + X129 + X118 + X106
 + X93 + X79 + X64 + X48 + X31 + X13 = 1
 Groupe14: + X694 + X691 + X688 + X681 + X672 + X670 + X664 + X660
 + X655 + X648 + X642 + X632 + X625 + X620 + X610 + X609 + X608 + X607
 + X603 + X597 + X596 + X595 + X591 + X586 + X578 + X577 + X576 + X570
 + X564 + X559 + X547 + X546 + X545 + X544 + X543 + X538 + X532 + X527
 + X521 + X513 + X505 + X499 + X492 + X488 + X483 + X474 + X460 + X459
 + X458 + X457 + X454 + X449 + X440 + X429 + X418 + X410 + X406 + X401
 + X392 + X379 + X366 + X365 + X364 + X363 + X362 + X357 + X351 + X347
 + X342 + X335 + X328 + X323 + X315 + X303 + X292 + X278 + X265 + X264
 + X263 + X257 + X249 + X239 + X229 + X221 + X212 + X202 + X180 + X179
 + X178 + X177 + X176 + X170 + X164 + X157 + X149 + X140 + X130 + X119
 + X107 + X94 + X80 + X65 + X49 + X32 + X14 = 1
 Groupe15: + X665 + X612 + X611 + X607 + X598 + X579 + X550 + X549
 + X548 + X543 + X533 + X514 + X493 + X475 + X461 + X430 + X411 + X393
 + X368 + X367 + X362 + X352 + X336 + X316 + X293 + X266 + X240 + X203
 + X184 + X183 + X182 + X181 + X176 + X171 + X165 + X158 + X150 + X141
 + X131 + X120 + X108 + X95 + X81 + X66 + X50 + X33 + X15 = 1
 Groupe16: + X692 + X689 + X682 + X666 + X649 + X643 + X633 + X614
 + X613 + X611 + X608 + X604 + X600 + X599 + X595 + X592 + X587 + X581
 + X580 + X576 + X571 + X565 + X560 + X553 + X552 + X551 + X548 + X544
 + X539 + X534 + X528 + X522 + X515 + X506 + X500 + X494 + X476 + X463
 + X462 + X457 + X450 + X441 + X431 + X419 + X412 + X394 + X380 + X371
 + X370 + X369 + X363 + X358 + X353 + X343 + X337 + X317 + X304 + X294
 + X279 + X268 + X267 + X263 + X258 + X250 + X241 + X222 + X204 + X187
 + X186 + X185 + X181 + X177 + X172 + X166 + X159 + X151 + X142 + X132
 + X121 + X109 + X96 + X82 + X67 + X51 + X34 + X16 = 1
 Groupe17: + X694 + X693 + X690 + X683 + X673 + X671 + X667 + X661
 + X656 + X650 + X644 + X634 + X626 + X621 + X615 + X613 + X612 + X609
 + X605 + X601 + X599 + X596 + X593 + X588 + X582 + X580 + X577 + X572
 + X566 + X561 + X555 + X554 + X551 + X549 + X545 + X540 + X535 + X529
 + X523 + X516 + X507 + X501 + X495 + X489 + X484 + X477 + X465 + X464
 + X462 + X458 + X455 + X451 + X442 + X432 + X420 + X413 + X407 + X402
 + X395 + X381 + X373 + X372 + X369 + X367 + X364 + X359 + X354 + X348
 + X344 + X338 + X329 + X324 + X318 + X305 + X295 + X280 + X269 + X267
 + X264 + X259 + X251 + X242 + X230 + X223 + X213 + X205 + X189 + X188
 + X185 + X182 + X178 + X173 + X167 + X160 + X152 + X143 + X133 + X122
 + X110 + X97 + X83 + X68 + X52 + X35 + X17 = 1
 Groupe18: + X684 + X668 + X615 + X614 + X610 + X606 + X602 + X589
 + X583 + X573 + X556 + X554 + X552 + X546 + X541 + X536 + X524 + X517
 + X496 + X478 + X466 + X464 + X459 + X452 + X443 + X433 + X414 + X396
 + X374 + X372 + X370 + X365 + X360 + X355 + X339 + X319 + X306 + X296
 + X281 + X270 + X260 + X252 + X243 + X224 + X206 + X190 + X188 + X186
 + X183 + X179 + X174 + X168 + X161 + X153 + X144 + X134 + X123 + X111
 + X98 + X84 + X69 + X53 + X36 + X18 = 1
 Groupe19: + X694 + X693 + X692 + X691 + X690 + X689 + X688 + X687
 + X686 + X685 + X684 + X683 + X682 + X681 + X680 + X679 + X678 + X677
 + X676 + X675 + X674 + X673 + X672 + X671 + X670 + X669 + X668 + X667
 + X666 + X665 + X664 + X663 + X662 + X659 + X658 + X657 + X653 + X652
 + X651 + X650 + X649 + X648 + X647 + X646 + X645 + X639 + X637 + X636
 + X634 + X633 + X632 + X631 + X630 + X629 + X628 + X627 + X626 + X625
 + X624 + X623 + X622 + X617 + X615 + X614 + X613 + X612 + X611 + X610
 + X609 + X608 + X607 + X606 + X605 + X604 + X603 + X602 + X601 + X600
 + X598 + X597 + X594 + X593 + X592 + X591 + X590 + X589 + X588 + X587
 + X586 + X585 + X584 + X583 + X582 + X581 + X579 + X578 + X575 + X574
 + X568 + X567 + X566 + X565 + X564 + X563 + X562 + X561 + X560 + X559
 + X558 + X557 + X556 + X555 + X553 + X550 + X547 + X542 + X537 + X530
 + X525 + X518 + X508 + X502 + X496 + X495 + X494 + X493 + X492 + X491
 + X490 + X487 + X486 + X485 + X481 + X480 + X479 + X466 + X465 + X463
 + X461 + X460 + X456 + X453 + X447 + X446 + X444 + X436 + X435 + X434
 + X421 + X414 + X413 + X412 + X411 + X410 + X409 + X408 + X405 + X404
 + X403 + X399 + X398 + X397 + X384 + X382 + X374 + X373 + X371 + X368
 + X366 + X361 + X356 + X349 + X345 + X340 + X330 + X325 + X320 + X307
 + X297 + X282 + X270 + X269 + X268 + X266 + X265 + X262 + X261 + X255
 + X254 + X253 + X246 + X245 + X244 + X231 + X225 + X214 + X207 + X190
 + X189 + X187 + X184 + X180 + X175 + X169 + X162 + X154 + X145 + X135
 + X124 + X112 + X99 + X85 + X70 + X54 + X37 + X19 = 1

Bounds
 0 <= X1 <= 1
 0 <= X2 <= 1
 0 <= X3 <= 1
 0 <= X4 <= 1
 0 <= X5 <= 1
 0 <= X6 <= 1
 0 <= X7 <= 1
 0 <= X8 <= 1
 0 <= X9 <= 1
 0 <= X10 <= 1
 0 <= X11 <= 1
 0 <= X12 <= 1
 0 <= X13 <= 1
 0 <= X14 <= 1
 0 <= X15 <= 1
 0 <= X16 <= 1
 0 <= X17 <= 1
 0 <= X18 <= 1
 0 <= X19 <= 1
 0 <= X20 <= 1
 0 <= X21 <= 1
 0 <= X22 <= 1
 0 <= X23 <= 1
 0 <= X24 <= 1
 0 <= X25 <= 1
 0 <= X26 <= 1
 0 <= X27 <= 1
 0 <= X28 <= 1
 0 <= X29 <= 1
 0 <= X30 <= 1
 0 <= X31 <= 1
 0 <= X32 <= 1
 0 <= X33 <= 1
 0 <= X34 <= 1
 0 <= X35 <= 1
 0 <= X36 <= 1
 0 <= X37 <= 1
 0 <= X38 <= 1
 0 <= X39 <= 1
 0 <= X40 <= 1
 0 <= X41 <= 1
 0 <= X42 <= 1
 0 <= X43 <= 1
 0 <= X44 <= 1
 0 <= X45 <= 1
 0 <= X46 <= 1
 0 <= X47 <= 1
 0 <= X48 <= 1
 0 <= X49 <= 1
 0 <= X50 <= 1
 0 <= X51 <= 1
 0 <= X52 <= 1
 0 <= X53 <= 1
 0 <= X54 <= 1
 0 <= X55 <= 1
 0 <= X56 <= 1
 0 <= X57 <= 1
 0 <= X58 <= 1
 0 <= X59 <= 1
 0 <= X60 <= 1
 0 <= X61 <= 1
 0 <= X62 <= 1
 0 <= X63 <= 1
 0 <= X64 <= 1
 0 <= X65 <= 1
 0 <= X66 <= 1
 0 <= X67 <= 1
 0 <= X68 <= 1
 0 <= X69 <= 1
 0 <= X70 <= 1
 0 <= X71 <= 1
 0 <= X72 <= 1
 0 <= X73 <= 1
 0 <= X74 <= 1
 0 <= X75 <= 1
 0 <= X76 <= 1
 0 <= X77 <= 1
 0 <= X78 <= 1
 0 <= X79 <= 1
 0 <= X80 <= 1
 0 <= X81 <= 1
 0 <= X82 <= 1
 0 <= X83 <= 1
 0 <= X84 <= 1
 0 <= X85 <= 1
 0 <= X86 <= 1
 0 <= X87 <= 1
 0 <= X88 <= 1
 0 <= X89 <= 1
 0 <= X90 <= 1
 0 <= X91 <= 1
 0 <= X92 <= 1
 0 <= X93 <= 1
 0 <= X94 <= 1
 0 <= X95 <= 1
 0 <= X96 <= 1
 0 <= X97 <= 1
 0 <= X98 <= 1
 0 <= X99 <= 1
 0 <= X100 <= 1
 0 <= X101 <= 1
 0 <= X102 <= 1
 0 <= X103 <= 1
 0 <= X104 <= 1
 0 <= X105 <= 1
 0 <= X106 <= 1
 0 <= X107 <= 1
 0 <= X108 <= 1
 0 <= X109 <= 1
 0 <= X110 <= 1
 0 <= X111 <= 1
 0 <= X112 <= 1
 0 <= X113 <= 1
 0 <= X114 <= 1
 0 <= X115 <= 1
 0 <= X116 <= 1
 0 <= X117 <= 1
 0 <= X118 <= 1
 0 <= X119 <= 1
 0 <= X120 <= 1
 0 <= X121 <= 1
 0 <= X122 <= 1
 0 <= X123 <= 1
 0 <= X124 <= 1
 0 <= X125 <= 1
 0 <= X126 <= 1
 0 <= X127 <= 1
 0 <= X128 <= 1
 0 <= X129 <= 1
 0 <= X130 <= 1
 0 <= X131 <= 1
 0 <= X132 <= 1
 0 <= X133 <= 1
 0 <= X134 <= 1
 0 <= X135 <= 1
 0 <= X136 <= 1
 0 <= X137 <= 1
 0 <= X138 <= 1
 0 <= X139 <= 1
 0 <= X140 <= 1
 0 <= X141 <= 1
 0 <= X142 <= 1
 0 <= X143 <= 1
 0 <= X144 <= 1
 0 <= X145 <= 1
 0 <= X146 <= 1
 0 <= X147 <= 1
 0 <= X148 <= 1
 0 <= X149 <= 1
 0 <= X150 <= 1
 0 <= X151 <= 1
 0 <= X152 <= 1
 0 <= X153 <= 1
 0 <= X154 <= 1
 0 <= X155 <= 1
 0 <= X156 <= 1
 0 <= X157 <= 1
 0 <= X158 <= 1
 0 <= X159 <= 1
 0 <= X160 <= 1
 0 <= X161 <= 1
 0 <= X162 <= 1
 0 <= X163 <= 1
 0 <= X164 <= 1
 0 <= X165 <= 1
 0 <= X166 <= 1
 0 <= X167 <= 1
 0 <= X168 <= 1
 0 <= X169 <= 1
 0 <= X170 <= 1
 0 <= X171 <= 1
 0 <= X172 <= 1
 0 <= X173 <= 1
 0 <= X174 <= 1
 0 <= X175 <= 1
 0 <= X176 <= 1
 0 <= X177 <= 1
 0 <= X178 <= 1
 0 <= X179 <= 1
 0 <= X180 <= 1
 0 <= X181 <= 1
 0 <= X182 <= 1
 0 <= X183 <= 1
 0 <= X184 <= 1
 0 <= X185 <= 1
 0 <= X186 <= 1
 0 <= X187 <= 1
 0 <= X188 <= 1
 0 <= X189 <= 1
 0 <= X190 <= 1
 0 <= X191 <= 1
 0 <= X192 <= 1
 0 <= X193 <= 1
 0 <= X194 <= 1
 0 <= X195 <= 1
 0 <= X196 <= 1
 0 <= X197 <= 1
 0 <= X198 <= 1
 0 <= X199 <= 1
 0 <= X200 <= 1
 0 <= X201 <= 1
 0 <= X202 <= 1
 0 <= X203 <= 1
 0 <= X204 <= 1
 0 <= X205 <= 1
 0 <= X206 <= 1
 0 <= X207 <= 1
 0 <= X208 <= 1
 0 <= X209 <= 1
 0 <= X210 <= 1
 0 <= X211 <= 1
 0 <= X212 <= 1
 0 <= X213 <= 1
 0 <= X214 <= 1
 0 <= X215 <= 1
 0 <= X216 <= 1
 0 <= X217 <= 1
 0 <= X218 <= 1
 0 <= X219 <= 1
 0 <= X220 <= 1
 0 <= X221 <= 1
 0 <= X222 <= 1
 0 <= X223 <= 1
 0 <= X224 <= 1
 0 <= X225 <= 1
 0 <= X226 <= 1
 0 <= X227 <= 1
 0 <= X228 <= 1
 0 <= X229 <= 1
 0 <= X230 <= 1
 0 <= X231 <= 1
 0 <= X232 <= 1
 0 <= X233 <= 1
 0 <= X234 <= 1
 0 <= X235 <= 1
 0 <= X236 <= 1
 0 <= X237 <= 1
 0 <= X238 <= 1
 0 <= X239 <= 1
 0 <= X240 <= 1
 0 <= X241 <= 1
 0 <= X242 <= 1
 0 <= X243 <= 1
 0 <= X244 <= 1
 0 <= X245 <= 1
 0 <= X246 <= 1
 0 <= X247 <= 1
 0 <= X248 <= 1
 0 <= X249 <= 1
 0 <= X250 <= 1
 0 <= X251 <= 1
 0 <= X252 <= 1
 0 <= X253 <= 1
 0 <= X254 <= 1
 0 <= X255 <= 1
 0 <= X256 <= 1
 0 <= X257 <= 1
 0 <= X258 <= 1
 0 <= X259 <= 1
 0 <= X260 <= 1
 0 <= X261 <= 1
 0 <= X262 <= 1
 0 <= X263 <= 1
 0 <= X264 <= 1
 0 <= X265 <= 1
 0 <= X266 <= 1
 0 <= X267 <= 1
 0 <= X268 <= 1
 0 <= X269 <= 1
 0 <= X270 <= 1
 0 <= X271 <= 1
 0 <= X272 <= 1
 0 <= X273 <= 1
 0 <= X274 <= 1
 0 <= X275 <= 1
 0 <= X276 <= 1
 0 <= X277 <= 1
 0 <= X278 <= 1
 0 <= X279 <= 1
 0 <= X280 <= 1
 0 <= X281 <= 1
 0 <= X282 <= 1
 0 <= X283 <= 1
 0 <= X284 <= 1
 0 <= X285 <= 1
 0 <= X286 <= 1
 0 <= X287 <= 1
 0 <= X288 <= 1
 0 <= X289 <= 1
 0 <= X290 <= 1
 0 <= X291 <= 1
 0 <= X292 <= 1
 0 <= X293 <= 1
 0 <= X294 <= 1
 0 <= X295 <= 1
 0 <= X296 <= 1
 0 <= X297 <= 1
 0 <= X298 <= 1
 0 <= X299 <= 1
 0 <= X300 <= 1
 0 <= X301 <= 1
 0 <= X302 <= 1
 0 <= X303 <= 1
 0 <= X304 <= 1
 0 <= X305 <= 1
 0 <= X306 <= 1
 0 <= X307 <= 1
 0 <= X308 <= 1
 0 <= X309 <= 1
 0 <= X310 <= 1
 0 <= X311 <= 1
 0 <= X312 <= 1
 0 <= X313 <= 1
 0 <= X314 <= 1
 0 <= X315 <= 1
 0 <= X316 <= 1
 0 <= X317 <= 1
 0 <= X318 <= 1
 0 <= X319 <= 1
 0 <= X320 <= 1
 0 <= X321 <= 1
 0 <= X322 <= 1
 0 <= X323 <= 1
 0 <= X324 <= 1
 0 <= X325 <= 1
 0 <= X326 <= 1
 0 <= X327 <= 1
 0 <= X328 <= 1
 0 <= X329 <= 1
 0 <= X330 <= 1
 0 <= X331 <= 1
 0 <= X332 <= 1
 0 <= X333 <= 1
 0 <= X334 <= 1
 0 <= X335 <= 1
 0 <= X336 <= 1
 0 <= X337 <= 1
 0 <= X338 <= 1
 0 <= X339 <= 1
 0 <= X340 <= 1
 0 <= X341 <= 1
 0 <= X342 <= 1
 0 <= X343 <= 1
 0 <= X344 <= 1
 0 <= X345 <= 1
 0 <= X346 <= 1
 0 <= X347 <= 1
 0 <= X348 <= 1
 0 <= X349 <= 1
 0 <= X350 <= 1
 0 <= X351 <= 1
 0 <= X352 <= 1
 0 <= X353 <= 1
 0 <= X354 <= 1
 0 <= X355 <= 1
 0 <= X356 <= 1
 0 <= X357 <= 1
 0 <= X358 <= 1
 0 <= X359 <= 1
 0 <= X360 <= 1
 0 <= X361 <= 1
 0 <= X362 <= 1
 0 <= X363 <= 1
 0 <= X364 <= 1
 0 <= X365 <= 1
 0 <= X366 <= 1
 0 <= X367 <= 1
 0 <= X368 <= 1
 0 <= X369 <= 1
 0 <= X370 <= 1
 0 <= X371 <= 1
 0 <= X372 <= 1
 0 <= X373 <= 1
 0 <= X374 <= 1
 0 <= X375 <= 1
 0 <= X376 <= 1
 0 <= X377 <= 1
 0 <= X378 <= 1
 0 <= X379 <= 1
 0 <= X380 <= 1
 0 <= X381 <= 1
 0 <= X382 <= 1
 0 <= X383 <= 1
 0 <= X384 <= 1
 0 <= X385 <= 1
 0 <= X386 <= 1
 0 <= X387 <= 1
 0 <= X388 <= 1
 0 <= X389 <= 1
 0 <= X390 <= 1
 0 <= X391 <= 1
 0 <= X392 <= 1
 0 <= X393 <= 1
 0 <= X394 <= 1
 0 <= X395 <= 1
 0 <= X396 <= 1
 0 <= X397 <= 1
 0 <= X398 <= 1
 0 <= X399 <= 1
 0 <= X400 <= 1
 0 <= X401 <= 1
 0 <= X402 <= 1
 0 <= X403 <= 1
 0 <= X404 <= 1
 0 <= X405 <= 1
 0 <= X406 <= 1
 0 <= X407 <= 1
 0 <= X408 <= 1
 0 <= X409 <= 1
 0 <= X410 <= 1
 0 <= X411 <= 1
 0 <= X412 <= 1
 0 <= X413 <= 1
 0 <= X414 <= 1
 0 <= X415 <= 1
 0 <= X416 <= 1
 0 <= X417 <= 1
 0 <= X418 <= 1
 0 <= X419 <= 1
 0 <= X420 <= 1
 0 <= X421 <= 1
 0 <= X422 <= 1
 0 <= X423 <= 1
 0 <= X424 <= 1
 0 <= X425 <= 1
 0 <= X426 <= 1
 0 <= X427 <= 1
 0 <= X428 <= 1
 0 <= X429 <= 1
 0 <= X430 <= 1
 0 <= X431 <= 1
 0 <= X432 <= 1
 0 <= X433 <= 1
 0 <= X434 <= 1
 0 <= X435 <= 1
 0 <= X436 <= 1
 0 <= X437 <= 1
 0 <= X438 <= 1
 0 <= X439 <= 1
 0 <= X440 <= 1
 0 <= X441 <= 1
 0 <= X442 <= 1
 0 <= X443 <= 1
 0 <= X444 <= 1
 0 <= X445 <= 1
 0 <= X446 <= 1
 0 <= X447 <= 1
 0 <= X448 <= 1
 0 <= X449 <= 1
 0 <= X450 <= 1
 0 <= X451 <= 1
 0 <= X452 <= 1
 0 <= X453 <= 1
 0 <= X454 <= 1
 0 <= X455 <= 1
 0 <= X456 <= 1
 0 <= X457 <= 1
 0 <= X458 <= 1
 0 <= X459 <= 1
 0 <= X460 <= 1
 0 <= X461 <= 1
 0 <= X462 <= 1
 0 <= X463 <= 1
 0 <= X464 <= 1
 0 <= X465 <= 1
 0 <= X466 <= 1
 0 <= X467 <= 1
 0 <= X468 <= 1
 0 <= X469 <= 1
 0 <= X470 <= 1
 0 <= X471 <= 1
 0 <= X472 <= 1
 0 <= X473 <= 1
 0 <= X474 <= 1
 0 <= X475 <= 1
 0 <= X476 <= 1
 0 <= X477 <= 1
 0 <= X478 <= 1
 0 <= X479 <= 1
 0 <= X480 <= 1
 0 <= X481 <= 1
 0 <= X482 <= 1
 0 <= X483 <= 1
 0 <= X484 <= 1
 0 <= X485 <= 1
 0 <= X486 <= 1
 0 <= X487 <= 1
 0 <= X488 <= 1
 0 <= X489 <= 1
 0 <= X490 <= 1
 0 <= X491 <= 1
 0 <= X492 <= 1
 0 <= X493 <= 1
 0 <= X494 <= 1
 0 <= X495 <= 1
 0 <= X496 <= 1
 0 <= X497 <= 1
 0 <= X498 <= 1
 0 <= X499 <= 1
 0 <= X500 <= 1
 0 <= X501 <= 1
 0 <= X502 <= 1
 0 <= X503 <= 1
 0 <= X504 <= 1
 0 <= X505 <= 1
 0 <= X506 <= 1
 0 <= X507 <= 1
 0 <= X508 <= 1
 0 <= X509 <= 1
 0 <= X510 <= 1
 0 <= X511 <= 1
 0 <= X512 <= 1
 0 <= X513 <= 1
 0 <= X514 <= 1
 0 <= X515 <= 1
 0 <= X516 <= 1
 0 <= X517 <= 1
 0 <= X518 <= 1
 0 <= X519 <= 1
 0 <= X520 <= 1
 0 <= X521 <= 1
 0 <= X522 <= 1
 0 <= X523 <= 1
 0 <= X524 <= 1
 0 <= X525 <= 1
 0 <= X526 <= 1
 0 <= X527 <= 1
 0 <= X528 <= 1
 0 <= X529 <= 1
 0 <= X530 <= 1
 0 <= X531 <= 1
 0 <= X532 <= 1
 0 <= X533 <= 1
 0 <= X534 <= 1
 0 <= X535 <= 1
 0 <= X536 <= 1
 0 <= X537 <= 1
 0 <= X538 <= 1
 0 <= X539 <= 1
 0 <= X540 <= 1
 0 <= X541 <= 1
 0 <= X542 <= 1
 0 <= X543 <= 1
 0 <= X544 <= 1
 0 <= X545 <= 1
 0 <= X546 <= 1
 0 <= X547 <= 1
 0 <= X548 <= 1
 0 <= X549 <= 1
 0 <= X550 <= 1
 0 <= X551 <= 1
 0 <= X552 <= 1
 0 <= X553 <= 1
 0 <= X554 <= 1
 0 <= X555 <= 1
 0 <= X556 <= 1
 0 <= X557 <= 1
 0 <= X558 <= 1
 0 <= X559 <= 1
 0 <= X560 <= 1
 0 <= X561 <= 1
 0 <= X562 <= 1
 0 <= X563 <= 1
 0 <= X564 <= 1
 0 <= X565 <= 1
 0 <= X566 <= 1
 0 <= X567 <= 1
 0 <= X568 <= 1
 0 <= X569 <= 1
 0 <= X570 <= 1
 0 <= X571 <= 1
 0 <= X572 <= 1
 0 <= X573 <= 1
 0 <= X574 <= 1
 0 <= X575 <= 1
 0 <= X576 <= 1
 0 <= X577 <= 1
 0 <= X578 <= 1
 0 <= X579 <= 1
 0 <= X580 <= 1
 0 <= X581 <= 1
 0 <= X582 <= 1
 0 <= X583 <= 1
 0 <= X584 <= 1
 0 <= X585 <= 1
 0 <= X586 <= 1
 0 <= X587 <= 1
 0 <= X588 <= 1
 0 <= X589 <= 1
 0 <= X590 <= 1
 0 <= X591 <= 1
 0 <= X592 <= 1
 0 <= X593 <= 1
 0 <= X594 <= 1
 0 <= X595 <= 1
 0 <= X596 <= 1
 0 <= X597 <= 1
 0 <= X598 <= 1
 0 <= X599 <= 1
 0 <= X600 <= 1
 0 <= X601 <= 1
 0 <= X602 <= 1
 0 <= X603 <= 1
 0 <= X604 <= 1
 0 <= X605 <= 1
 0 <= X606 <= 1
 0 <= X607 <= 1
 0 <= X608 <= 1
 0 <= X609 <= 1
 0 <= X610 <= 1
 0 <= X611 <= 1
 0 <= X612 <= 1
 0 <= X613 <= 1
 0 <= X614 <= 1
 0 <= X615 <= 1
 0 <= X616 <= 1
 0 <= X617 <= 1
 0 <= X618 <= 1
 0 <= X619 <= 1
 0 <= X620 <= 1
 0 <= X621 <= 1
 0 <= X622 <= 1
 0 <= X623 <= 1
 0 <= X624 <= 1
 0 <= X625 <= 1
 0 <= X626 <= 1
 0 <= X627 <= 1
 0 <= X628 <= 1
 0 <= X629 <= 1
 0 <= X630 <= 1
 0 <= X631 <= 1
 0 <= X632 <= 1
 0 <= X633 <= 1
 0 <= X634 <= 1
 0 <= X635 <= 1
 0 <= X636 <= 1
 0 <= X637 <= 1
 0 <= X638 <= 1
 0 <= X639 <= 1
 0 <= X640 <= 1
 0 <= X641 <= 1
 0 <= X642 <= 1
 0 <= X643 <= 1
 0 <= X644 <= 1
 0 <= X645 <= 1
 0 <= X646 <= 1
 0 <= X647 <= 1
 0 <= X648 <= 1
 0 <= X649 <= 1
 0 <= X650 <= 1
 0 <= X651 <= 1
 0 <= X652 <= 1
 0 <= X653 <= 1
 0 <= X654 <= 1
 0 <= X655 <= 1
 0 <= X656 <= 1
 0 <= X657 <= 1
 0 <= X658 <= 1
 0 <= X659 <= 1
 0 <= X660 <= 1
 0 <= X661 <= 1
 0 <= X662 <= 1
 0 <= X663 <= 1
 0 <= X664 <= 1
 0 <= X665 <= 1
 0 <= X666 <= 1
 0 <= X667 <= 1
 0 <= X668 <= 1
 0 <= X669 <= 1
 0 <= X670 <= 1
 0 <= X671 <= 1
 0 <= X672 <= 1
 0 <= X673 <= 1
 0 <= X674 <= 1
 0 <= X675 <= 1
 0 <= X676 <= 1
 0 <= X677 <= 1
 0 <= X678 <= 1
 0 <= X679 <= 1
 0 <= X680 <= 1
 0 <= X681 <= 1
 0 <= X682 <= 1
 0 <= X683 <= 1
 0 <= X684 <= 1
 0 <= X685 <= 1
 0 <= X686 <= 1
 0 <= X687 <= 1
 0 <= X688 <= 1
 0 <= X689 <= 1
 0 <= X690 <= 1
 0 <= X691 <= 1
 0 <= X692 <= 1
 0 <= X693 <= 1
 0 <= X694 <= 1

Generals
 X1
 X2
 X3
 X4
 X5
 X6
 X7
 X8
 X9
 X10
 X11
 X12
 X13
 X14
 X15
 X16
 X17
 X18
 X19
 X20
 X21
 X22
 X23
 X24
 X25
 X26
 X27
 X28
 X29
 X30
 X31
 X32
 X33
 X34
 X35
 X36
 X37
 X38
 X39
 X40
 X41
 X42
 X43
 X44
 X45
 X46
 X47
 X48
 X49
 X50
 X51
 X52
 X53
 X54
 X55
 X56
 X57
 X58
 X59
 X60
 X61
 X62
 X63
 X64
 X65
 X66
 X67
 X68
 X69
 X70
 X71
 X72
 X73
 X74
 X75
 X76
 X77
 X78
 X79
 X80
 X81
 X82
 X83
 X84
 X85
 X86
 X87
 X88
 X89
 X90
 X91
 X92
 X93
 X94
 X95
 X96
 X97
 X98
 X99
 X100
 X101
 X102
 X103
 X104
 X105
 X106
 X107
 X108
 X109
 X110
 X111
 X112
 X113
 X114
 X115
 X116
 X117
 X118
 X119
 X120
 X121
 X122
 X123
 X124
 X125
 X126
 X127
 X128
 X129
 X130
 X131
 X132
 X133
 X134
 X135
 X136
 X137
 X138
 X139
 X140
 X141
 X142
 X143
 X144
 X145
 X146
 X147
 X148
 X149
 X150
 X151
 X152
 X153
 X154
 X155
 X156
 X157
 X158
 X159
 X160
 X161
 X162
 X163
 X164
 X165
 X166
 X167
 X168
 X169
 X170
 X171
 X172
 X173
 X174
 X175
 X176
 X177
 X178
 X179
 X180
 X181
 X182
 X183
 X184
 X185
 X186
 X187
 X188
 X189
 X190
 X191
 X192
 X193
 X194
 X195
 X196
 X197
 X198
 X199
 X200
 X201
 X202
 X203
 X204
 X205
 X206
 X207
 X208
 X209
 X210
 X211
 X212
 X213
 X214
 X215
 X216
 X217
 X218
 X219
 X220
 X221
 X222
 X223
 X224
 X225
 X226
 X227
 X228
 X229
 X230
 X231
 X232
 X233
 X234
 X235
 X236
 X237
 X238
 X239
 X240
 X241
 X242
 X243
 X244
 X245
 X246
 X247
 X248
 X249
 X250
 X251
 X252
 X253
 X254
 X255
 X256
 X257
 X258
 X259
 X260
 X261
 X262
 X263
 X264
 X265
 X266
 X267
 X268
 X269
 X270
 X271
 X272
 X273
 X274
 X275
 X276
 X277
 X278
 X279
 X280
 X281
 X282
 X283
 X284
 X285
 X286
 X287
 X288
 X289
 X290
 X291
 X292
 X293
 X294
 X295
 X296
 X297
 X298
 X299
 X300
 X301
 X302
 X303
 X304
 X305
 X306
 X307
 X308
 X309
 X310
 X311
 X312
 X313
 X314
 X315
 X316
 X317
 X318
 X319
 X320
 X321
 X322
 X323
 X324
 X325
 X326
 X327
 X328
 X329
 X330
 X331
 X332
 X333
 X334
 X335
 X336
 X337
 X338
 X339
 X340
 X341
 X342
 X343
 X344
 X345
 X346
 X347
 X348
 X349
 X350
 X351
 X352
 X353
 X354
 X355
 X356
 X357
 X358
 X359
 X360
 X361
 X362
 X363
 X364
 X365
 X366
 X367
 X368
 X369
 X370
 X371
 X372
 X373
 X374
 X375
 X376
 X377
 X378
 X379
 X380
 X381
 X382
 X383
 X384
 X385
 X386
 X387
 X388
 X389
 X390
 X391
 X392
 X393
 X394
 X395
 X396
 X397
 X398
 X399
 X400
 X401
 X402
 X403
 X404
 X405
 X406
 X407
 X408
 X409
 X410
 X411
 X412
 X413
 X414
 X415
 X416
 X417
 X418
 X419
 X420
 X421
 X422
 X423
 X424
 X425
 X426
 X427
 X428
 X429
 X430
 X431
 X432
 X433
 X434
 X435
 X436
 X437
 X438
 X439
 X440
 X441
 X442
 X443
 X444
 X445
 X446
 X447
 X448
 X449
 X450
 X451
 X452
 X453
 X454
 X455
 X456
 X457
 X458
 X459
 X460
 X461
 X462
 X463
 X464
 X465
 X466
 X467
 X468
 X469
 X470
 X471
 X472
 X473
 X474
 X475
 X476
 X477
 X478
 X479
 X480
 X481
 X482
 X483
 X484
 X485
 X486
 X487
 X488
 X489
 X490
 X491
 X492
 X493
 X494
 X495
 X496
 X497
 X498
 X499
 X500
 X501
 X502
 X503
 X504
 X505
 X506
 X507
 X508
 X509
 X510
 X511
 X512
 X513
 X514
 X515
 X516
 X517
 X518
 X519
 X520
 X521
 X522
 X523
 X524
 X525
 X526
 X527
 X528
 X529
 X530
 X531
 X532
 X533
 X534
 X535
 X536
 X537
 X538
 X539
 X540
 X541
 X542
 X543
 X544
 X545
 X546
 X547
 X548
 X549
 X550
 X551
 X552
 X553
 X554
 X555
 X556
 X557
 X558
 X559
 X560
 X561
 X562
 X563
 X564
 X565
 X566
 X567
 X568
 X569
 X570
 X571
 X572
 X573
 X574
 X575
 X576
 X577
 X578
 X579
 X580
 X581
 X582
 X583
 X584
 X585
 X586
 X587
 X588
 X589
 X590
 X591
 X592
 X593
 X594
 X595
 X596
 X597
 X598
 X599
 X600
 X601
 X602
 X603
 X604
 X605
 X606
 X607
 X608
 X609
 X610
 X611
 X612
 X613
 X614
 X615
 X616
 X617
 X618
 X619
 X620
 X621
 X622
 X623
 X624
 X625
 X626
 X627
 X628
 X629
 X630
 X631
 X632
 X633
 X634
 X635
 X636
 X637
 X638
 X639
 X640
 X641
 X642
 X643
 X644
 X645
 X646
 X647
 X648
 X649
 X650
 X651
 X652
 X653
 X654
 X655
 X656
 X657
 X658
 X659
 X660
 X661
 X662
 X663
 X664
 X665
 X666
 X667
 X668
 X669
 X670
 X671
 X672
 X673
 X674
 X675
 X676
 X677
 X678
 X679
 X680
 X681
 X682
 X683
 X684
 X685
 X686
 X687
 X688
 X689
 X690
 X691
 X692
 X693
 X694

End
